100
1000
265
264
263
261
254
248
247
246
245
241
233
229
228
227
224
223
220
219
218
216
215
212
209
205
198
194
186
180
180
180
177
169
166
165
161
160
159
158
157
156
155
154
152
152
151
148
139
137
135
127
125
125
120
112
111
111
109
109
107
106
101
101
98
97
95
95
95
92
91
90
89
86
84
83
82
80
78
77
77
75
75
74
69
68
68
63
58
52
52
52
47
40
33
31
28
27
23
19
17
16
